34
raw_data/rcpsp/DC2-npv75.xlsx rcpspdc394
Time limit set to 60 seconds
Running CP solver
/home/omastto1/General-Optimization-Solver/src/solvers/rcpsp.py:31(stream:95:6): Warning: Cumulative expression 'pulse': height is zero, expression is zero everywhere.
                                                                                            VarCumulAtom_238 = pulse("0", 0)
/home/omastto1/General-Optimization-Solver/src/solvers/rcpsp.py:31(stream:95:1212): Warning: Cumulative expression 'pulse': height is zero, expression is zero everywhere.
                                                                                               VarCumulAtom_314 = pulse("76", 0)
/home/omastto1/General-Optimization-Solver/src/solvers/rcpsp.py:31(stream:96:6): Warning: Cumulative expression 'pulse': height is zero, expression is zero everywhere.
                                                                                            VarCumulAtom_318 = pulse("0", 0)
/home/omastto1/General-Optimization-Solver/src/solvers/rcpsp.py:31(stream:96:1212): Warning: Cumulative expression 'pulse': height is zero, expression is zero everywhere.
                                                                                               VarCumulAtom_394 = pulse("76", 0)
/home/omastto1/General-Optimization-Solver/src/solvers/rcpsp.py:31(stream:97:6): Warning: Cumulative expression 'pulse': height is zero, expression is zero everywhere.
                                                                                            VarCumulAtom_398 = pulse("0", 0)
/home/omastto1/General-Optimization-Solver/src/solvers/rcpsp.py:31(stream:97:1212): Warning: Cumulative expression 'pulse': height is zero, expression is zero everywhere.
                                                                                               VarCumulAtom_474 = pulse("76", 0)
/home/omastto1/General-Optimization-Solver/src/solvers/rcpsp.py:31(stream:98:6): Warning: Cumulative expression 'pulse': height is zero, expression is zero everywhere.
                                                                                            VarCumulAtom_478 = pulse("0", 0)
/home/omastto1/General-Optimization-Solver/src/solvers/rcpsp.py:31(stream:98:1212): Warning: Cumulative expression 'pulse': height is zero, expression is zero everywhere.
                                                                                               VarCumulAtom_554 = pulse("76", 0)
 ! --------------------------------------------------- CP Optimizer 20.1.0.0 --
 ! Minimization problem - 78 variables, 491 constraints
 ! TimeLimit            = 60
 ! Workers              = 14
 ! LogVerbosity         = Terse
 ! Initial process time : 0.01s (0.01s extraction + 0.00s propagation)
 !  . Log search space  : 502.5 (before), 502.5 (after)
 !  . Memory usage      : 898.7 kB (before), 898.7 kB (after)
 ! Using parallel search with 14 workers.
 ! ----------------------------------------------------------------------------
 !          Best Branches  Non-fixed    W       Branch decision
                        0         78                 -
 + New bound is 33
 ! Using iterative diving.
 ! Using temporal relaxation.
 *           134      157  1.08s        1      (gap is 75.37%)
 *           127     1373  1.08s        1      (gap is 74.02%)
 *           126     1712  1.08s        1      (gap is 73.81%)
 *           124     4513  1.08s        1      (gap is 73.39%)
 *           122     6716  1.08s        1      (gap is 72.95%)
             122     4474          3    4            -
 + New bound is 108 (gap is 11.48%)
 ! Using failure-directed search.
 *           121    15732  3.27s        9      (gap is 10.74%)
 *           120    26591  5.48s        3      (gap is 10.00%)
 *           119    33412  7.64s        6      (gap is 9.24%)
 *           118    46832  14.20s       6      (gap is 8.47%)
 *           117     310k  28.57s      12      (gap is 7.69%)
 *           116     141k  34.12s      11      (gap is 6.90%)
 *           115     233k  56.43s       9      (gap is 6.09%)
 ! ----------------------------------------------------------------------------
 ! Search terminated by limit, 12 solutions found.
 ! Best objective         : 115 (gap is 6.09%)
 ! Best bound             : 108
 ! ----------------------------------------------------------------------------
 ! Number of branches     : 4597821
 ! Number of fails        : 994747
 ! Total memory usage     : 13.5 MB (13.4 MB CP Optimizer + 0.1 MB Concert)
 ! Time spent in solve    : 60.04s (60.03s engine + 0.01s extraction)
 ! Search speed (br. / s) : 76592.1
 ! ----------------------------------------------------------------------------
(108,)
(0.0608696,)
(115,)
Objective value: 115
Solution is 6.5 % worse than the lower bound.
Feasible solution found
